(declare-const main__bufsize Int)
(declare-const __VERIFIER_assert__cond___6 Int)
(declare-const phi___VERIFIER_assert__cond___9 Int)
(declare-const __VERIFIER_assert__cond Int)
(declare-const __VERIFIER_assert__cond___2 Int)
(declare-const |__VERIFIER_assert__cond___3'| Int)
(declare-const |__VERIFIER_assert__cond___5'| Int)
(declare-const term_to_project_onto10 Real)
(declare-const |__VERIFIER_assert__cond___2'| Int)
(declare-const term_to_project_onto Real)
(declare-const phi_main__i Int)
(declare-const |__VERIFIER_assert__cond___12'| Int)
(declare-const __VERIFIER_assert__cond___10 Int)
(declare-const phi___VERIFIER_assert__cond___11 Int)
(declare-const phi___VERIFIER_assert__cond___6 Int)
(declare-const havoc0 Int)
(declare-const |__VERIFIER_assert__cond___6'| Int)
(declare-const phi___VERIFIER_assert__cond___0 Int)
(declare-const term_to_project_onto4 Real)
(declare-const __VERIFIER_assert__cond___9 Int)
(declare-const phi___VERIFIER_assert__cond___13 Int)
(declare-const term_to_project_onto9 Real)
(declare-const __VERIFIER_assert__cond___3 Int)
(declare-const phi_main____CPAchecker_TMP_00 Int)
(declare-const term_to_project_onto12 Real)
(declare-const |__VERIFIER_assert__cond___1'| Int)
(declare-const main__i Int)
(declare-const havoc Int)
(declare-const term_to_project_onto14 Real)
(declare-const __VERIFIER_assert__cond___0 Int)
(declare-const phi___VERIFIER_assert__cond___00 Int)
(declare-const __VERIFIER_assert__cond___11 Int)
(declare-const term_to_project_onto13 Real)
(declare-const term_to_project_onto2 Real)
(declare-const __VERIFIER_assert__cond___5 Int)
(declare-const term_to_project_onto11 Real)
(declare-const __VERIFIER_assert__cond___13 Int)
(declare-const phi___VERIFIER_assert__cond___1 Int)
(declare-const |__VERIFIER_assert__cond___0'| Int)
(declare-const |__VERIFIER_assert__cond___11'| Int)
(declare-const term_to_project_onto1 Real)
(declare-const term_to_project_onto17 Real)
(declare-const term_to_project_onto15 Real)
(declare-const phi___VERIFIER_assert__cond___14 Int)
(declare-const __VERIFIER_assert__cond___4 Int)
(declare-const |__VERIFIER_assert__cond___10'| Int)
(declare-const phi___VERIFIER_assert__cond___5 Int)
(declare-const phi___VERIFIER_assert__cond___2 Int)
(declare-const phi_main__j Int)
(declare-const term_to_project_onto16 Real)
(declare-const |__VERIFIER_assert__cond___14'| Int)
(declare-const |__VERIFIER_assert__cond___9'| Int)
(declare-const __VERIFIER_assert__cond___12 Int)
(declare-const |__VERIFIER_assert__cond___13'| Int)
(declare-const phi___VERIFIER_assert__cond0 Int)
(declare-const term_to_project_onto3 Real)
(declare-const |main__i'| Int)
(declare-const __VERIFIER_assert__cond___7 Int)
(declare-const phi___VERIFIER_assert__cond___3 Int)
(declare-const phi___VERIFIER_assert__cond___4 Int)
(declare-const |__VERIFIER_assert__cond___4'| Int)
(declare-const |__VERIFIER_assert__cond___7'| Int)
(declare-const term_to_project_onto0 Real)
(declare-const phi___VERIFIER_assert__cond___12 Int)
(declare-const main__limit Int)
(declare-const phi___VERIFIER_assert__cond___10 Int)
(declare-const __VERIFIER_assert__cond___1 Int)
(declare-const |__VERIFIER_assert__cond___8'| Int)
(declare-const term_to_project_onto6 Real)
(declare-const main__j Int)
(declare-const term_to_project_onto5 Real)
(declare-const |main__j'| Int)
(declare-const main____CPAchecker_TMP_0 Int)
(declare-const phi___VERIFIER_assert__cond___7 Int)
(declare-const phi_main____CPAchecker_TMP_0 Int)
(declare-const main__len Int)
(declare-const term_to_project_onto8 Real)
(declare-const __VERIFIER_assert__cond___8 Int)
(declare-const term_to_project_onto7 Real)
(declare-const |__VERIFIER_assert__cond'| Int)
(declare-const phi___VERIFIER_assert__cond___8 Int)
(declare-const __VERIFIER_assert__cond___14 Int)
(declare-const phi___VERIFIER_assert__cond Int)
(declare-const |main____CPAchecker_TMP_0'| Int)
(assert (and (<= (- main__j) 0) (<= (+ (- main__len) 1) 0) (<= (- main__i) 0)
               (<= (- main__bufsize) 0)
               (= (+ main__limit (- main__bufsize) 4) 0)
               (<= (+ main__i (- main__len) 1) 0)
               (<= (+ (- main__limit) main__j 1) 0)
               (or (and (or (and (<= (+ (- main__i) main__len -1) 0)
                                   (= (+ (- phi___VERIFIER_assert__cond)
                                           __VERIFIER_assert__cond) 0)
                                   (= (+ (- phi___VERIFIER_assert__cond___0)
                                           __VERIFIER_assert__cond___0) 0)
                                   (= (+ (- phi_main____CPAchecker_TMP_0)
                                           main____CPAchecker_TMP_0) 0))
                              (and (<= (+ main__i (- main__len) 2) 0)
                                     (or (<= (+ (ite (<= (+ main__i
                                                              (- main__len) 2) 0)
                                                     1 0) 1) 0)
                                           (<= (+ (- (ite (<= (+ main__i
                                                                   (- 
                                                                   main__len)
                                                                   2) 0)
                                                          1 0)) 1) 0))
                                     (or (<= (+ (ite (<= (- main__i) 0) 1 0)
                                                  1) 0)
                                           (<= (+ (- (ite (<= (- main__i) 0)
                                                          1 0)) 1) 0))
                                     (or (<= (+ havoc 1) 0)
                                           (<= (+ (- havoc) 1) 0))
                                     (= (+ (ite (<= (+ main__i (- main__len)
                                                         2) 0)
                                                1 0)
                                             (- phi___VERIFIER_assert__cond)) 0)
                                     (= (+ (ite (<= (- main__i) 0) 1 0)
                                             (- phi___VERIFIER_assert__cond___0)) 0)
                                     (= (+ havoc
                                             (- phi_main____CPAchecker_TMP_0)) 0)))
                          (or (<= (+ (ite (<= (+ main__i (- main__len) 1) 0)
                                          1 0) 1) 0)
                                (<= (+ (- (ite (<= (+ main__i (- main__len) 1) 0)
                                               1 0)) 1) 0))
                          (or (<= (+ (ite (<= (- main__i) 0) 1 0) 1) 0)
                                (<= (+ (- (ite (<= (- main__i) 0) 1 0)) 1) 0))
                          (or (<= (+ (ite (<= (+ (- main__bufsize) main__j 1) 0)
                                          1 0) 1) 0)
                                (<= (+ (- (ite (<= (+ (- main__bufsize)
                                                        main__j 1) 0)
                                               1 0)) 1) 0))
                          (or (<= (+ (ite (<= (- main__j) 0) 1 0) 1) 0)
                                (<= (+ (- (ite (<= (- main__j) 0) 1 0)) 1) 0))
                          (= (+ (- phi_main__i) main__i 1) 0)
                          (= (+ (- phi_main__j) main__j 1) 0)
                          (= (+ (- phi___VERIFIER_assert__cond0)
                                  phi___VERIFIER_assert__cond) 0)
                          (= (+ (- phi___VERIFIER_assert__cond___00)
                                  phi___VERIFIER_assert__cond___0) 0)
                          (= (+ (- phi_main____CPAchecker_TMP_00)
                                  phi_main____CPAchecker_TMP_0) 0)
                          (= (+ (- phi___VERIFIER_assert__cond___1)
                                  (ite (<= (+ main__i (- main__len) 1) 0) 1 0)) 0)
                          (= (+ (- phi___VERIFIER_assert__cond___2)
                                  (ite (<= (- main__i) 0) 1 0)) 0)
                          (= (+ (- phi___VERIFIER_assert__cond___3)
                                  (ite (<= (+ (- main__bufsize) main__j 1) 0)
                                       1 0)) 0)
                          (= (+ (- phi___VERIFIER_assert__cond___4)
                                  (ite (<= (- main__j) 0) 1 0)) 0)
                          (= (+ (- phi___VERIFIER_assert__cond___5)
                                  __VERIFIER_assert__cond___5) 0)
                          (= (+ (- phi___VERIFIER_assert__cond___6)
                                  __VERIFIER_assert__cond___6) 0)
                          (= (+ (- phi___VERIFIER_assert__cond___7)
                                  __VERIFIER_assert__cond___7) 0)
                          (= (+ (- phi___VERIFIER_assert__cond___8)
                                  __VERIFIER_assert__cond___8) 0)
                          (= (+ (- phi___VERIFIER_assert__cond___9)
                                  __VERIFIER_assert__cond___9) 0)
                          (= (+ (- phi___VERIFIER_assert__cond___10)
                                  __VERIFIER_assert__cond___10) 0)
                          (= (+ (- phi___VERIFIER_assert__cond___11)
                                  __VERIFIER_assert__cond___11) 0)
                          (= (+ (- phi___VERIFIER_assert__cond___12)
                                  __VERIFIER_assert__cond___12) 0)
                          (= (+ (- phi___VERIFIER_assert__cond___13)
                                  __VERIFIER_assert__cond___13) 0)
                          (= (+ (- phi___VERIFIER_assert__cond___14)
                                  __VERIFIER_assert__cond___14) 0))
                     (and (<= (+ main__i (- main__len) 2) 0)
                            (or (<= (+ (ite (<= (+ main__i (- main__len) 2) 0)
                                            1 0) 1) 0)
                                  (<= (+ (- (ite (<= (+ main__i (- main__len)
                                                          2) 0)
                                                 1 0)) 1) 0))
                            (or (<= (+ (ite (<= (- main__i) 0) 1 0) 1) 0)
                                  (<= (+ (- (ite (<= (- main__i) 0) 1 0)) 1) 0))
                            (= havoc0 0)
                            (or (<= (+ (ite (<= (+ main__i (- main__len) 1) 0)
                                            1 0) 1) 0)
                                  (<= (+ (- (ite (<= (+ main__i (- main__len)
                                                          1) 0)
                                                 1 0)) 1) 0))
                            (or (<= (+ (ite (<= (- main__i) 0) 1 0) 1) 0)
                                  (<= (+ (- (ite (<= (- main__i) 0) 1 0)) 1) 0))
                            (or (<= (+ (ite (<= (+ (- main__bufsize) main__j
                                                     1) 0)
                                            1 0) 1) 0)
                                  (<= (+ (- (ite (<= (+ (- main__bufsize)
                                                          main__j 1) 0)
                                                 1 0)) 1) 0))
                            (or (<= (+ (ite (<= (- main__j) 0) 1 0) 1) 0)
                                  (<= (+ (- (ite (<= (- main__j) 0) 1 0)) 1) 0))
                            (or (<= (+ (ite (<= (+ main__i (- main__len) 2) 0)
                                            1 0) 1) 0)
                                  (<= (+ (- (ite (<= (+ main__i (- main__len)
                                                          2) 0)
                                                 1 0)) 1) 0))
                            (or (<= (+ (ite (<= (+ (- main__i) -1) 0) 1 0) 1) 0)
                                  (<= (+ (- (ite (<= (+ (- main__i) -1) 0) 1
                                                 0)) 1) 0))
                            (or (<= (+ (ite (<= (+ (- main__bufsize) main__j
                                                     2) 0)
                                            1 0) 1) 0)
                                  (<= (+ (- (ite (<= (+ (- main__bufsize)
                                                          main__j 2) 0)
                                                 1 0)) 1) 0))
                            (or (<= (+ (ite (<= (+ (- main__j) -1) 0) 1 0) 1) 0)
                                  (<= (+ (- (ite (<= (+ (- main__j) -1) 0) 1
                                                 0)) 1) 0))
                            (or (<= (+ (ite (<= (+ (- main__bufsize) main__j
                                                     3) 0)
                                            1 0) 1) 0)
                                  (<= (+ (- (ite (<= (+ (- main__bufsize)
                                                          main__j 3) 0)
                                                 1 0)) 1) 0))
                            (or (<= (+ (ite (<= (+ (- main__j) -2) 0) 1 0) 1) 0)
                                  (<= (+ (- (ite (<= (+ (- main__j) -2) 0) 1
                                                 0)) 1) 0))
                            (= (+ (- phi_main__i) main__i 2) 0)
                            (= (+ (- phi_main__j) main__j 3) 0)
                            (= (+ (- phi___VERIFIER_assert__cond0)
                                    (ite (<= (+ main__i (- main__len) 2) 0) 1
                                         0)) 0)
                            (= (+ (- phi___VERIFIER_assert__cond___00)
                                    (ite (<= (- main__i) 0) 1 0)) 0)
                            (= (+ havoc0 (- phi_main____CPAchecker_TMP_00)) 0)
                            (= (+ __VERIFIER_assert__cond___1
                                    (- phi___VERIFIER_assert__cond___1)) 0)
                            (= (+ __VERIFIER_assert__cond___2
                                    (- phi___VERIFIER_assert__cond___2)) 0)
                            (= (+ __VERIFIER_assert__cond___3
                                    (- phi___VERIFIER_assert__cond___3)) 0)
                            (= (+ __VERIFIER_assert__cond___4
                                    (- phi___VERIFIER_assert__cond___4)) 0)
                            (= (+ (- phi___VERIFIER_assert__cond___5)
                                    (ite (<= (+ main__i (- main__len) 1) 0) 1
                                         0)) 0)
                            (= (+ (- phi___VERIFIER_assert__cond___6)
                                    (ite (<= (- main__i) 0) 1 0)) 0)
                            (= (+ (- phi___VERIFIER_assert__cond___7)
                                    (ite (<= (+ (- main__bufsize) main__j 1) 0)
                                         1 0)) 0)
                            (= (+ (- phi___VERIFIER_assert__cond___8)
                                    (ite (<= (- main__j) 0) 1 0)) 0)
                            (= (+ (- phi___VERIFIER_assert__cond___9)
                                    (ite (<= (+ main__i (- main__len) 2) 0) 1
                                         0)) 0)
                            (= (+ (ite (<= (+ (- main__i) -1) 0) 1 0)
                                    (- phi___VERIFIER_assert__cond___10)) 0)
                            (= (+ (ite (<= (+ (- main__bufsize) main__j 2) 0)
                                       1 0)
                                    (- phi___VERIFIER_assert__cond___11)) 0)
                            (= (+ (ite (<= (+ (- main__j) -1) 0) 1 0)
                                    (- phi___VERIFIER_assert__cond___12)) 0)
                            (= (+ (ite (<= (+ (- main__bufsize) main__j 3) 0)
                                       1 0)
                                    (- phi___VERIFIER_assert__cond___13)) 0)
                            (= (+ (ite (<= (+ (- main__j) -2) 0) 1 0)
                                    (- phi___VERIFIER_assert__cond___14)) 0)))
               (= (+ |__VERIFIER_assert__cond___14'|
                       (- phi___VERIFIER_assert__cond___14)) 0)
               (= (+ |__VERIFIER_assert__cond___13'|
                       (- phi___VERIFIER_assert__cond___13)) 0)
               (= (+ |__VERIFIER_assert__cond___12'|
                       (- phi___VERIFIER_assert__cond___12)) 0)
               (= (+ |__VERIFIER_assert__cond___11'|
                       (- phi___VERIFIER_assert__cond___11)) 0)
               (= (+ |__VERIFIER_assert__cond___10'|
                       (- phi___VERIFIER_assert__cond___10)) 0)
               (= (+ |__VERIFIER_assert__cond___9'|
                       (- phi___VERIFIER_assert__cond___9)) 0)
               (= (+ |__VERIFIER_assert__cond___8'|
                       (- phi___VERIFIER_assert__cond___8)) 0)
               (= (+ |__VERIFIER_assert__cond___7'|
                       (- phi___VERIFIER_assert__cond___7)) 0)
               (= (+ |__VERIFIER_assert__cond___6'|
                       (- phi___VERIFIER_assert__cond___6)) 0)
               (= (+ |__VERIFIER_assert__cond___5'|
                       (- phi___VERIFIER_assert__cond___5)) 0)
               (= (+ |__VERIFIER_assert__cond___4'|
                       (- phi___VERIFIER_assert__cond___4)) 0)
               (= (+ |__VERIFIER_assert__cond___3'|
                       (- phi___VERIFIER_assert__cond___3)) 0)
               (= (+ |__VERIFIER_assert__cond___2'|
                       (- phi___VERIFIER_assert__cond___2)) 0)
               (= (+ |__VERIFIER_assert__cond___1'|
                       (- phi___VERIFIER_assert__cond___1)) 0)
               (= (+ |main____CPAchecker_TMP_0'|
                       (- phi_main____CPAchecker_TMP_00)) 0)
               (= (+ |__VERIFIER_assert__cond___0'|
                       (- phi___VERIFIER_assert__cond___00)) 0)
               (= (+ |__VERIFIER_assert__cond'|
                       (- phi___VERIFIER_assert__cond0)) 0)
               (= (+ |main__j'| (- phi_main__j)) 0)
               (= (+ |main__i'| (- phi_main__i)) 0)
               (= term_to_project_onto17 (+ |main__i'| (- main__i)))
               (= term_to_project_onto16 (+ |main__j'| (- main__j)))
               (= term_to_project_onto15 (+ |__VERIFIER_assert__cond'|
                                              (- __VERIFIER_assert__cond)))
               (= term_to_project_onto14 (+ |__VERIFIER_assert__cond___0'|
                                              (- __VERIFIER_assert__cond___0)))
               (= term_to_project_onto13 (+ |main____CPAchecker_TMP_0'|
                                              (- main____CPAchecker_TMP_0)))
               (= term_to_project_onto12 (+ |__VERIFIER_assert__cond___1'|
                                              (- __VERIFIER_assert__cond___1)))
               (= term_to_project_onto11 (+ |__VERIFIER_assert__cond___2'|
                                              (- __VERIFIER_assert__cond___2)))
               (= term_to_project_onto10 (+ |__VERIFIER_assert__cond___3'|
                                              (- __VERIFIER_assert__cond___3)))
               (= term_to_project_onto9 (+ |__VERIFIER_assert__cond___4'|
                                             (- __VERIFIER_assert__cond___4)))
               (= term_to_project_onto8 (+ |__VERIFIER_assert__cond___5'|
                                             (- __VERIFIER_assert__cond___5)))
               (= term_to_project_onto7 (+ |__VERIFIER_assert__cond___6'|
                                             (- __VERIFIER_assert__cond___6)))
               (= term_to_project_onto6 (+ |__VERIFIER_assert__cond___7'|
                                             (- __VERIFIER_assert__cond___7)))
               (= term_to_project_onto5 (+ |__VERIFIER_assert__cond___8'|
                                             (- __VERIFIER_assert__cond___8)))
               (= term_to_project_onto4 (+ |__VERIFIER_assert__cond___9'|
                                             (- __VERIFIER_assert__cond___9)))
               (= term_to_project_onto3 (+ |__VERIFIER_assert__cond___10'|
                                             (- __VERIFIER_assert__cond___10)))
               (= term_to_project_onto2 (+ |__VERIFIER_assert__cond___11'|
                                             (- __VERIFIER_assert__cond___11)))
               (= term_to_project_onto1 (+ |__VERIFIER_assert__cond___12'|
                                             (- __VERIFIER_assert__cond___12)))
               (= term_to_project_onto0 (+ |__VERIFIER_assert__cond___13'|
                                             (- __VERIFIER_assert__cond___13)))
               (= term_to_project_onto (+ |__VERIFIER_assert__cond___14'|
                                            (- __VERIFIER_assert__cond___14)))))
(check-sat)
